LatticeConstant 1.0 Ang
%block LatticeVectors
         11.776282984       0.000000000       0.000000000
          0.000000000      11.030875126       0.000000000
          0.000000000       0.000000000       6.266317315
%endblock LatticeVectors
ZM.UnitsLength Ang
ZM.UnitsAngle deg
%block Zmatrix
molecule_cartesian
 2   0   0   0      2.56572674      3.68000000      6.90322361   1   0   1
 2   1   0   0      1.33750226     90.00000000     60.00000000   0   0   0
 2   2   1   0      1.33750226    100.00000000     90.00000000   0   1   0
 2   3   2   1      1.33750226    100.00000000      0.00000000   0   0   0
 2   4   3   2      1.33750226    100.00000000      0.00000000   0   0   0
 2   5   4   3      1.33750226    100.00000000      0.00000000   0   0   0
 1   1   2   3      1.10045774    120.00128992    180.00000000   1   1   0
 1   2   1   7      1.10045774    120.00128992      0.00000000   0   0   0
 1   3   2   8      1.10045774    120.00128992      0.00000000   0   0   0
 1   4   3   9      1.10045774    120.00128992      0.00000000   0   0   0
 1   5   4  10      1.10045774    120.00128992      0.00000000   0   0   0
 1   6   5  11      1.10045774    120.00128992      0.00000000   0   0   0
%endblock Zmatrix
